c File:  sanr200_0.9.clq
c
c SOURCE: Laura Sanchis (laura@cs.colgate.edu)
c
c DESCRIPTION:  Randomly generated graph of similar size to "san"
c               graphs, but with differenct clique characteristics
c
c REFERENCE: "Test Case Construction for the Vertex Cover Problem", 
c DIMACS Workshop on Computational Support for Discrete Mathematics, 
c March, 1992, with additional work in a to be published technical
c report.
c
c random graph 200 vertices 17863 edges
c 200 0.100000 3827
p wcnf 40 1354 7647
9 1 2 0
9 -1 -2 0
4 1 4 0
4 -1 -4 0
8 1 5 0
8 -1 -5 0
8 1 6 0
8 -1 -6 0
10 1 8 0
10 -1 -8 0
2 1 9 0
2 -1 -9 0
4 1 10 0
4 -1 -10 0
8 1 12 0
8 -1 -12 0
3 1 13 0
3 -1 -13 0
6 1 14 0
6 -1 -14 0
5 1 15 0
5 -1 -15 0
7 1 16 0
7 -1 -16 0
4 1 18 0
4 -1 -18 0
6 1 19 0
6 -1 -19 0
10 1 20 0
10 -1 -20 0
10 1 21 0
10 -1 -21 0
7 1 22 0
7 -1 -22 0
8 1 24 0
8 -1 -24 0
2 1 25 0
2 -1 -25 0
7 1 26 0
7 -1 -26 0
1 1 28 0
1 -1 -28 0
3 1 29 0
3 -1 -29 0
2 1 30 0
2 -1 -30 0
9 1 31 0
9 -1 -31 0
2 1 33 0
2 -1 -33 0
5 1 34 0
5 -1 -34 0
2 1 35 0
2 -1 -35 0
2 1 36 0
2 -1 -36 0
10 1 37 0
10 -1 -37 0
3 1 38 0
3 -1 -38 0
6 1 40 0
6 -1 -40 0
9 2 3 0
9 -2 -3 0
7 2 4 0
7 -2 -4 0
3 2 5 0
3 -2 -5 0
7 2 6 0
7 -2 -6 0
6 2 7 0
6 -2 -7 0
5 2 9 0
5 -2 -9 0
10 2 10 0
10 -2 -10 0
3 2 11 0
3 -2 -11 0
8 2 12 0
8 -2 -12 0
6 2 13 0
6 -2 -13 0
8 2 14 0
8 -2 -14 0
5 2 15 0
5 -2 -15 0
9 2 16 0
9 -2 -16 0
3 2 17 0
3 -2 -17 0
4 2 18 0
4 -2 -18 0
9 2 19 0
9 -2 -19 0
10 2 20 0
10 -2 -20 0
1 2 21 0
1 -2 -21 0
10 2 22 0
10 -2 -22 0
6 2 23 0
6 -2 -23 0
1 2 24 0
1 -2 -24 0
2 2 25 0
2 -2 -25 0
7 2 26 0
7 -2 -26 0
9 2 27 0
9 -2 -27 0
4 2 28 0
4 -2 -28 0
1 2 29 0
1 -2 -29 0
1 2 30 0
1 -2 -30 0
5 2 31 0
5 -2 -31 0
1 2 32 0
1 -2 -32 0
3 2 33 0
3 -2 -33 0
10 2 34 0
10 -2 -34 0
10 2 35 0
10 -2 -35 0
9 2 36 0
9 -2 -36 0
3 2 37 0
3 -2 -37 0
6 2 38 0
6 -2 -38 0
4 2 39 0
4 -2 -39 0
8 2 40 0
8 -2 -40 0
6 3 4 0
6 -3 -4 0
7 3 6 0
7 -3 -6 0
6 3 7 0
6 -3 -7 0
1 3 8 0
1 -3 -8 0
5 3 9 0
5 -3 -9 0
10 3 10 0
10 -3 -10 0
10 3 11 0
10 -3 -11 0
8 3 12 0
8 -3 -12 0
3 3 13 0
3 -3 -13 0
8 3 14 0
8 -3 -14 0
7 3 15 0
7 -3 -15 0
4 3 16 0
4 -3 -16 0
7 3 18 0
7 -3 -18 0
2 3 19 0
2 -3 -19 0
5 3 21 0
5 -3 -21 0
9 3 22 0
9 -3 -22 0
9 3 23 0
9 -3 -23 0
4 3 24 0
4 -3 -24 0
3 3 25 0
3 -3 -25 0
9 3 26 0
9 -3 -26 0
4 3 27 0
4 -3 -27 0
7 3 28 0
7 -3 -28 0
10 3 30 0
10 -3 -30 0
6 3 31 0
6 -3 -31 0
7 3 32 0
7 -3 -32 0
9 3 33 0
9 -3 -33 0
5 3 34 0
5 -3 -34 0
10 3 35 0
10 -3 -35 0
4 3 36 0
4 -3 -36 0
9 3 38 0
9 -3 -38 0
7 3 39 0
7 -3 -39 0
10 3 40 0
10 -3 -40 0
5 4 5 0
5 -4 -5 0
3 4 6 0
3 -4 -6 0
10 4 7 0
10 -4 -7 0
10 4 9 0
10 -4 -9 0
2 4 10 0
2 -4 -10 0
9 4 11 0
9 -4 -11 0
7 4 12 0
7 -4 -12 0
5 4 14 0
5 -4 -14 0
7 4 15 0
7 -4 -15 0
3 4 16 0
3 -4 -16 0
8 4 17 0
8 -4 -17 0
4 4 18 0
4 -4 -18 0
5 4 19 0
5 -4 -19 0
3 4 20 0
3 -4 -20 0
2 4 21 0
2 -4 -21 0
3 4 22 0
3 -4 -22 0
6 4 23 0
6 -4 -23 0
5 4 24 0
5 -4 -24 0
2 4 25 0
2 -4 -25 0
10 4 26 0
10 -4 -26 0
2 4 27 0
2 -4 -27 0
2 4 29 0
2 -4 -29 0
5 4 30 0
5 -4 -30 0
8 4 31 0
8 -4 -31 0
10 4 33 0
10 -4 -33 0
10 4 34 0
10 -4 -34 0
7 4 35 0
7 -4 -35 0
4 4 36 0
4 -4 -36 0
8 4 37 0
8 -4 -37 0
4 4 38 0
4 -4 -38 0
3 4 39 0
3 -4 -39 0
3 4 40 0
3 -4 -40 0
6 5 7 0
6 -5 -7 0
3 5 9 0
3 -5 -9 0
2 5 11 0
2 -5 -11 0
8 5 12 0
8 -5 -12 0
2 5 14 0
2 -5 -14 0
8 5 15 0
8 -5 -15 0
2 5 16 0
2 -5 -16 0
8 5 17 0
8 -5 -17 0
1 5 19 0
1 -5 -19 0
10 5 20 0
10 -5 -20 0
1 5 21 0
1 -5 -21 0
6 5 22 0
6 -5 -22 0
2 5 23 0
2 -5 -23 0
3 5 25 0
3 -5 -25 0
8 5 26 0
8 -5 -26 0
8 5 27 0
8 -5 -27 0
7 5 28 0
7 -5 -28 0
10 5 29 0
10 -5 -29 0
7 5 30 0
7 -5 -30 0
8 5 31 0
8 -5 -31 0
1 5 32 0
1 -5 -32 0
2 5 33 0
2 -5 -33 0
6 5 34 0
6 -5 -34 0
1 5 35 0
1 -5 -35 0
1 5 36 0
1 -5 -36 0
3 5 37 0
3 -5 -37 0
5 5 38 0
5 -5 -38 0
9 5 39 0
9 -5 -39 0
6 5 40 0
6 -5 -40 0
8 6 7 0
8 -6 -7 0
1 6 8 0
1 -6 -8 0
2 6 9 0
2 -6 -9 0
10 6 10 0
10 -6 -10 0
3 6 11 0
3 -6 -11 0
9 6 12 0
9 -6 -12 0
2 6 13 0
2 -6 -13 0
10 6 14 0
10 -6 -14 0
1 6 15 0
1 -6 -15 0
9 6 16 0
9 -6 -16 0
1 6 17 0
1 -6 -17 0
1 6 18 0
1 -6 -18 0
10 6 19 0
10 -6 -19 0
6 6 21 0
6 -6 -21 0
2 6 22 0
2 -6 -22 0
2 6 23 0
2 -6 -23 0
4 6 24 0
4 -6 -24 0
10 6 25 0
10 -6 -25 0
9 6 26 0
9 -6 -26 0
4 6 27 0
4 -6 -27 0
6 6 28 0
6 -6 -28 0
6 6 29 0
6 -6 -29 0
5 6 32 0
5 -6 -32 0
7 6 33 0
7 -6 -33 0
1 6 34 0
1 -6 -34 0
6 6 37 0
6 -6 -37 0
8 6 38 0
8 -6 -38 0
4 6 39 0
4 -6 -39 0
10 6 40 0
10 -6 -40 0
6 7 8 0
6 -7 -8 0
9 7 9 0
9 -7 -9 0
8 7 10 0
8 -7 -10 0
7 7 11 0
7 -7 -11 0
1 7 12 0
1 -7 -12 0
8 7 13 0
8 -7 -13 0
9 7 14 0
9 -7 -14 0
10 7 15 0
10 -7 -15 0
9 7 16 0
9 -7 -16 0
9 7 17 0
9 -7 -17 0
10 7 18 0
10 -7 -18 0
8 7 19 0
8 -7 -19 0
10 7 20 0
10 -7 -20 0
10 7 21 0
10 -7 -21 0
7 7 23 0
7 -7 -23 0
5 7 24 0
5 -7 -24 0
2 7 25 0
2 -7 -25 0
9 7 26 0
9 -7 -26 0
9 7 27 0
9 -7 -27 0
1 7 28 0
1 -7 -28 0
7 7 29 0
7 -7 -29 0
3 7 30 0
3 -7 -30 0
7 7 31 0
7 -7 -31 0
3 7 32 0
3 -7 -32 0
8 7 33 0
8 -7 -33 0
4 7 34 0
4 -7 -34 0
4 7 35 0
4 -7 -35 0
3 7 36 0
3 -7 -36 0
1 7 37 0
1 -7 -37 0
7 7 38 0
7 -7 -38 0
3 7 39 0
3 -7 -39 0
7 7 40 0
7 -7 -40 0
6 8 9 0
6 -8 -9 0
10 8 10 0
10 -8 -10 0
3 8 11 0
3 -8 -11 0
6 8 12 0
6 -8 -12 0
8 8 13 0
8 -8 -13 0
2 8 14 0
2 -8 -14 0
5 8 15 0
5 -8 -15 0
6 8 16 0
6 -8 -16 0
10 8 17 0
10 -8 -17 0
5 8 18 0
5 -8 -18 0
4 8 19 0
4 -8 -19 0
9 8 21 0
9 -8 -21 0
5 8 23 0
5 -8 -23 0
1 8 24 0
1 -8 -24 0
4 8 25 0
4 -8 -25 0
6 8 26 0
6 -8 -26 0
9 8 27 0
9 -8 -27 0
3 8 30 0
3 -8 -30 0
7 8 31 0
7 -8 -31 0
5 8 32 0
5 -8 -32 0
5 8 33 0
5 -8 -33 0
4 8 34 0
4 -8 -34 0
8 8 35 0
8 -8 -35 0
2 8 36 0
2 -8 -36 0
7 8 37 0
7 -8 -37 0
1 8 38 0
1 -8 -38 0
5 8 39 0
5 -8 -39 0
7 9 10 0
7 -9 -10 0
7 9 11 0
7 -9 -11 0
7 9 12 0
7 -9 -12 0
4 9 13 0
4 -9 -13 0
2 9 14 0
2 -9 -14 0
7 9 15 0
7 -9 -15 0
7 9 16 0
7 -9 -16 0
8 9 17 0
8 -9 -17 0
4 9 18 0
4 -9 -18 0
8 9 19 0
8 -9 -19 0
3 9 20 0
3 -9 -20 0
10 9 21 0
10 -9 -21 0
7 9 22 0
7 -9 -22 0
7 9 24 0
7 -9 -24 0
3 9 25 0
3 -9 -25 0
6 9 26 0
6 -9 -26 0
1 9 28 0
1 -9 -28 0
3 9 29 0
3 -9 -29 0
9 9 30 0
9 -9 -30 0
7 9 31 0
7 -9 -31 0
1 9 32 0
1 -9 -32 0
2 9 33 0
2 -9 -33 0
4 9 34 0
4 -9 -34 0
6 9 35 0
6 -9 -35 0
6 9 36 0
6 -9 -36 0
7 9 37 0
7 -9 -37 0
3 9 38 0
3 -9 -38 0
8 9 39 0
8 -9 -39 0
3 9 40 0
3 -9 -40 0
4 10 11 0
4 -10 -11 0
2 10 12 0
2 -10 -12 0
10 10 13 0
10 -10 -13 0
1 10 14 0
1 -10 -14 0
9 10 15 0
9 -10 -15 0
4 10 16 0
4 -10 -16 0
2 10 17 0
2 -10 -17 0
5 10 18 0
5 -10 -18 0
10 10 19 0
10 -10 -19 0
10 10 20 0
10 -10 -20 0
8 10 21 0
8 -10 -21 0
7 10 22 0
7 -10 -22 0
2 10 23 0
2 -10 -23 0
7 10 24 0
7 -10 -24 0
4 10 25 0
4 -10 -25 0
8 10 26 0
8 -10 -26 0
10 10 27 0
10 -10 -27 0
10 10 29 0
10 -10 -29 0
9 10 30 0
9 -10 -30 0
3 10 31 0
3 -10 -31 0
8 10 32 0
8 -10 -32 0
6 10 33 0
6 -10 -33 0
3 10 35 0
3 -10 -35 0
10 10 36 0
10 -10 -36 0
10 10 37 0
10 -10 -37 0
9 10 38 0
9 -10 -38 0
5 10 39 0
5 -10 -39 0
6 10 40 0
6 -10 -40 0
2 11 12 0
2 -11 -12 0
3 11 13 0
3 -11 -13 0
9 11 14 0
9 -11 -14 0
5 11 15 0
5 -11 -15 0
5 11 16 0
5 -11 -16 0
9 11 17 0
9 -11 -17 0
5 11 18 0
5 -11 -18 0
3 11 20 0
3 -11 -20 0
2 11 21 0
2 -11 -21 0
7 11 22 0
7 -11 -22 0
8 11 23 0
8 -11 -23 0
2 11 24 0
2 -11 -24 0
7 11 25 0
7 -11 -25 0
5 11 26 0
5 -11 -26 0
9 11 27 0
9 -11 -27 0
8 11 28 0
8 -11 -28 0
2 11 29 0
2 -11 -29 0
3 11 31 0
3 -11 -31 0
5 11 33 0
5 -11 -33 0
2 11 34 0
2 -11 -34 0
2 11 35 0
2 -11 -35 0
4 11 36 0
4 -11 -36 0
4 11 38 0
4 -11 -38 0
10 11 39 0
10 -11 -39 0
10 11 40 0
10 -11 -40 0
7 12 13 0
7 -12 -13 0
9 12 14 0
9 -12 -14 0
9 12 16 0
9 -12 -16 0
5 12 17 0
5 -12 -17 0
4 12 18 0
4 -12 -18 0
4 12 19 0
4 -12 -19 0
7 12 20 0
7 -12 -20 0
7 12 21 0
7 -12 -21 0
3 12 22 0
3 -12 -22 0
2 12 23 0
2 -12 -23 0
1 12 24 0
1 -12 -24 0
2 12 25 0
2 -12 -25 0
7 12 26 0
7 -12 -26 0
4 12 27 0
4 -12 -27 0
3 12 28 0
3 -12 -28 0
4 12 29 0
4 -12 -29 0
1 12 30 0
1 -12 -30 0
5 12 31 0
5 -12 -31 0
10 12 33 0
10 -12 -33 0
6 12 34 0
6 -12 -34 0
3 12 35 0
3 -12 -35 0
7 12 36 0
7 -12 -36 0
8 12 37 0
8 -12 -37 0
5 12 38 0
5 -12 -38 0
2 12 39 0
2 -12 -39 0
9 13 14 0
9 -13 -14 0
7 13 15 0
7 -13 -15 0
6 13 16 0
6 -13 -16 0
3 13 17 0
3 -13 -17 0
6 13 18 0
6 -13 -18 0
5 13 19 0
5 -13 -19 0
9 13 20 0
9 -13 -20 0
4 13 21 0
4 -13 -21 0
3 13 22 0
3 -13 -22 0
4 13 23 0
4 -13 -23 0
8 13 24 0
8 -13 -24 0
7 13 25 0
7 -13 -25 0
10 13 26 0
10 -13 -26 0
4 13 28 0
4 -13 -28 0
9 13 29 0
9 -13 -29 0
2 13 30 0
2 -13 -30 0
5 13 32 0
5 -13 -32 0
1 13 33 0
1 -13 -33 0
8 13 34 0
8 -13 -34 0
8 13 35 0
8 -13 -35 0
3 13 37 0
3 -13 -37 0
2 13 38 0
2 -13 -38 0
9 13 40 0
9 -13 -40 0
8 14 15 0
8 -14 -15 0
1 14 16 0
1 -14 -16 0
5 14 17 0
5 -14 -17 0
10 14 18 0
10 -14 -18 0
8 14 19 0
8 -14 -19 0
3 14 20 0
3 -14 -20 0
5 14 21 0
5 -14 -21 0
9 14 22 0
9 -14 -22 0
1 14 23 0
1 -14 -23 0
1 14 24 0
1 -14 -24 0
4 14 25 0
4 -14 -25 0
4 14 26 0
4 -14 -26 0
7 14 27 0
7 -14 -27 0
9 14 28 0
9 -14 -28 0
2 14 29 0
2 -14 -29 0
1 14 30 0
1 -14 -30 0
1 14 31 0
1 -14 -31 0
5 14 32 0
5 -14 -32 0
8 14 34 0
8 -14 -34 0
7 14 35 0
7 -14 -35 0
5 14 36 0
5 -14 -36 0
2 14 38 0
2 -14 -38 0
6 14 39 0
6 -14 -39 0
6 15 16 0
6 -15 -16 0
6 15 17 0
6 -15 -17 0
6 15 18 0
6 -15 -18 0
4 15 22 0
4 -15 -22 0
4 15 23 0
4 -15 -23 0
9 15 25 0
9 -15 -25 0
5 15 26 0
5 -15 -26 0
2 15 27 0
2 -15 -27 0
7 15 28 0
7 -15 -28 0
6 15 29 0
6 -15 -29 0
7 15 31 0
7 -15 -31 0
6 15 32 0
6 -15 -32 0
3 15 33 0
3 -15 -33 0
9 15 35 0
9 -15 -35 0
1 15 37 0
1 -15 -37 0
1 15 38 0
1 -15 -38 0
10 15 39 0
10 -15 -39 0
2 15 40 0
2 -15 -40 0
5 16 18 0
5 -16 -18 0
3 16 20 0
3 -16 -20 0
9 16 21 0
9 -16 -21 0
3 16 22 0
3 -16 -22 0
4 16 23 0
4 -16 -23 0
9 16 24 0
9 -16 -24 0
4 16 25 0
4 -16 -25 0
9 16 26 0
9 -16 -26 0
7 16 27 0
7 -16 -27 0
1 16 28 0
1 -16 -28 0
3 16 29 0
3 -16 -29 0
8 16 32 0
8 -16 -32 0
7 16 33 0
7 -16 -33 0
9 16 34 0
9 -16 -34 0
4 16 36 0
4 -16 -36 0
3 16 37 0
3 -16 -37 0
2 16 39 0
2 -16 -39 0
7 16 40 0
7 -16 -40 0
2 17 18 0
2 -17 -18 0
7 17 19 0
7 -17 -19 0
8 17 20 0
8 -17 -20 0
8 17 21 0
8 -17 -21 0
3 17 22 0
3 -17 -22 0
5 17 23 0
5 -17 -23 0
4 17 24 0
4 -17 -24 0
5 17 25 0
5 -17 -25 0
3 17 27 0
3 -17 -27 0
4 17 28 0
4 -17 -28 0
6 17 29 0
6 -17 -29 0
2 17 30 0
2 -17 -30 0
6 17 31 0
6 -17 -31 0
1 17 32 0
1 -17 -32 0
4 17 33 0
4 -17 -33 0
4 17 34 0
4 -17 -34 0
4 17 35 0
4 -17 -35 0
8 17 36 0
8 -17 -36 0
3 17 37 0
3 -17 -37 0
7 17 38 0
7 -17 -38 0
6 17 39 0
6 -17 -39 0
10 17 40 0
10 -17 -40 0
7 18 19 0
7 -18 -19 0
9 18 20 0
9 -18 -20 0
7 18 21 0
7 -18 -21 0
4 18 22 0
4 -18 -22 0
7 18 25 0
7 -18 -25 0
1 18 26 0
1 -18 -26 0
6 18 27 0
6 -18 -27 0
9 18 28 0
9 -18 -28 0
7 18 29 0
7 -18 -29 0
7 18 30 0
7 -18 -30 0
6 18 31 0
6 -18 -31 0
5 18 32 0
5 -18 -32 0
4 18 33 0
4 -18 -33 0
8 18 34 0
8 -18 -34 0
9 18 35 0
9 -18 -35 0
7 18 36 0
7 -18 -36 0
2 18 37 0
2 -18 -37 0
1 18 39 0
1 -18 -39 0
1 19 20 0
1 -19 -20 0
7 19 21 0
7 -19 -21 0
2 19 22 0
2 -19 -22 0
7 19 23 0
7 -19 -23 0
8 19 24 0
8 -19 -24 0
6 19 25 0
6 -19 -25 0
1 19 26 0
1 -19 -26 0
1 19 27 0
1 -19 -27 0
4 19 28 0
4 -19 -28 0
3 19 29 0
3 -19 -29 0
7 19 30 0
7 -19 -30 0
9 19 31 0
9 -19 -31 0
2 19 35 0
2 -19 -35 0
4 19 36 0
4 -19 -36 0
7 19 37 0
7 -19 -37 0
9 19 39 0
9 -19 -39 0
7 20 21 0
7 -20 -21 0
4 20 22 0
4 -20 -22 0
9 20 23 0
9 -20 -23 0
2 20 24 0
2 -20 -24 0
2 20 25 0
2 -20 -25 0
6 20 26 0
6 -20 -26 0
9 20 27 0
9 -20 -27 0
7 20 28 0
7 -20 -28 0
10 20 29 0
10 -20 -29 0
2 20 30 0
2 -20 -30 0
4 20 31 0
4 -20 -31 0
8 20 33 0
8 -20 -33 0
9 20 35 0
9 -20 -35 0
6 20 37 0
6 -20 -37 0
8 20 39 0
8 -20 -39 0
10 21 22 0
10 -21 -22 0
3 21 23 0
3 -21 -23 0
10 21 24 0
10 -21 -24 0
6 21 25 0
6 -21 -25 0
10 21 26 0
10 -21 -26 0
5 21 27 0
5 -21 -27 0
6 21 28 0
6 -21 -28 0
10 21 29 0
10 -21 -29 0
8 21 30 0
8 -21 -30 0
9 21 31 0
9 -21 -31 0
6 21 32 0
6 -21 -32 0
7 21 33 0
7 -21 -33 0
10 21 34 0
10 -21 -34 0
10 21 35 0
10 -21 -35 0
4 21 36 0
4 -21 -36 0
9 21 37 0
9 -21 -37 0
6 21 38 0
6 -21 -38 0
7 21 39 0
7 -21 -39 0
8 21 40 0
8 -21 -40 0
8 22 23 0
8 -22 -23 0
8 22 24 0
8 -22 -24 0
3 22 25 0
3 -22 -25 0
7 22 26 0
7 -22 -26 0
5 22 27 0
5 -22 -27 0
2 22 29 0
2 -22 -29 0
8 22 30 0
8 -22 -30 0
9 22 31 0
9 -22 -31 0
9 22 32 0
9 -22 -32 0
7 22 33 0
7 -22 -33 0
5 22 34 0
5 -22 -34 0
7 22 35 0
7 -22 -35 0
6 22 36 0
6 -22 -36 0
7 22 37 0
7 -22 -37 0
6 22 38 0
6 -22 -38 0
2 22 39 0
2 -22 -39 0
6 22 40 0
6 -22 -40 0
1 23 24 0
1 -23 -24 0
8 23 25 0
8 -23 -25 0
6 23 26 0
6 -23 -26 0
9 23 27 0
9 -23 -27 0
6 23 28 0
6 -23 -28 0
2 23 29 0
2 -23 -29 0
5 23 30 0
5 -23 -30 0
6 23 31 0
6 -23 -31 0
1 23 32 0
1 -23 -32 0
9 23 33 0
9 -23 -33 0
4 23 34 0
4 -23 -34 0
7 23 35 0
7 -23 -35 0
5 23 36 0
5 -23 -36 0
2 23 37 0
2 -23 -37 0
5 23 38 0
5 -23 -38 0
3 23 39 0
3 -23 -39 0
5 23 40 0
5 -23 -40 0
1 24 25 0
1 -24 -25 0
8 24 26 0
8 -24 -26 0
6 24 29 0
6 -24 -29 0
9 24 30 0
9 -24 -30 0
6 24 31 0
6 -24 -31 0
5 24 32 0
5 -24 -32 0
5 24 34 0
5 -24 -34 0
10 24 35 0
10 -24 -35 0
1 24 37 0
1 -24 -37 0
1 24 38 0
1 -24 -38 0
7 24 40 0
7 -24 -40 0
6 25 26 0
6 -25 -26 0
3 25 27 0
3 -25 -27 0
3 25 28 0
3 -25 -28 0
7 25 29 0
7 -25 -29 0
10 25 30 0
10 -25 -30 0
8 25 31 0
8 -25 -31 0
5 25 32 0
5 -25 -32 0
5 25 33 0
5 -25 -33 0
9 25 34 0
9 -25 -34 0
10 25 35 0
10 -25 -35 0
10 25 36 0
10 -25 -36 0
9 25 37 0
9 -25 -37 0
8 25 38 0
8 -25 -38 0
4 25 39 0
4 -25 -39 0
6 26 27 0
6 -26 -27 0
3 26 28 0
3 -26 -28 0
5 26 29 0
5 -26 -29 0
10 26 30 0
10 -26 -30 0
5 26 31 0
5 -26 -31 0
9 26 32 0
9 -26 -32 0
10 26 33 0
10 -26 -33 0
2 26 34 0
2 -26 -34 0
5 26 35 0
5 -26 -35 0
8 26 36 0
8 -26 -36 0
8 26 37 0
8 -26 -37 0
10 26 38 0
10 -26 -38 0
3 26 39 0
3 -26 -39 0
8 26 40 0
8 -26 -40 0
10 27 28 0
10 -27 -28 0
4 27 29 0
4 -27 -29 0
5 27 30 0
5 -27 -30 0
6 27 31 0
6 -27 -31 0
6 27 32 0
6 -27 -32 0
7 27 33 0
7 -27 -33 0
2 27 34 0
2 -27 -34 0
5 27 35 0
5 -27 -35 0
4 27 37 0
4 -27 -37 0
7 27 38 0
7 -27 -38 0
10 27 39 0
10 -27 -39 0
3 27 40 0
3 -27 -40 0
7 28 29 0
7 -28 -29 0
9 28 31 0
9 -28 -31 0
2 28 32 0
2 -28 -32 0
4 28 33 0
4 -28 -33 0
2 28 34 0
2 -28 -34 0
7 28 35 0
7 -28 -35 0
6 28 37 0
6 -28 -37 0
7 28 38 0
7 -28 -38 0
6 28 39 0
6 -28 -39 0
1 28 40 0
1 -28 -40 0
6 29 30 0
6 -29 -30 0
6 29 32 0
6 -29 -32 0
3 29 33 0
3 -29 -33 0
1 29 34 0
1 -29 -34 0
4 29 35 0
4 -29 -35 0
1 29 36 0
1 -29 -36 0
10 29 38 0
10 -29 -38 0
7 29 39 0
7 -29 -39 0
8 29 40 0
8 -29 -40 0
9 30 31 0
9 -30 -31 0
10 30 33 0
10 -30 -33 0
2 30 34 0
2 -30 -34 0
5 30 35 0
5 -30 -35 0
5 30 36 0
5 -30 -36 0
8 30 38 0
8 -30 -38 0
7 30 39 0
7 -30 -39 0
10 30 40 0
10 -30 -40 0
2 31 32 0
2 -31 -32 0
3 31 33 0
3 -31 -33 0
9 31 34 0
9 -31 -34 0
4 31 35 0
4 -31 -35 0
9 31 36 0
9 -31 -36 0
8 31 37 0
8 -31 -37 0
5 31 38 0
5 -31 -38 0
3 31 39 0
3 -31 -39 0
10 31 40 0
10 -31 -40 0
2 32 35 0
2 -32 -35 0
9 32 36 0
9 -32 -36 0
7 32 37 0
7 -32 -37 0
8 32 38 0
8 -32 -38 0
10 32 39 0
10 -32 -39 0
2 32 40 0
2 -32 -40 0
3 33 35 0
3 -33 -35 0
2 33 36 0
2 -33 -36 0
3 33 37 0
3 -33 -37 0
7 33 38 0
7 -33 -38 0
2 33 39 0
2 -33 -39 0
2 33 40 0
2 -33 -40 0
3 34 35 0
3 -34 -35 0
10 34 36 0
10 -34 -36 0
1 34 38 0
1 -34 -38 0
2 34 39 0
2 -34 -39 0
2 34 40 0
2 -34 -40 0
5 35 37 0
5 -35 -37 0
7 35 38 0
7 -35 -38 0
10 35 39 0
10 -35 -39 0
2 36 37 0
2 -36 -37 0
7 36 38 0
7 -36 -38 0
1 36 39 0
1 -36 -39 0
4 36 40 0
4 -36 -40 0
5 37 39 0
5 -37 -39 0
5 37 40 0
5 -37 -40 0
3 38 39 0
3 -38 -39 0
3 38 40 0
3 -38 -40 0
